memory 60 gb

molecule smo {
    C       -0.39704672     0.08186662    -0.93014663
    C        1.80909723     1.30940920     0.21854402
    O        1.53627150    -1.39092052     0.26971727
    H        1.58991686     2.23624489     2.03547730
    H        3.32773001     2.00752092    -0.96810975
    H       -0.41235902    -0.10463913    -2.97592443
    C       -2.93652083     0.09178271     0.34427813
    H       -2.70239885     0.28030014     2.38411130
    H       -4.08561009     1.66283290    -0.34489364
    H       -3.94741548    -1.66586553    -0.03759989
units bohr
}

set {
  basis ORP
  scf_type pk
}

e = energy('scf')
compare_values(-191.97940936708557, e, 7, "SCF ENERGY")

